N = 10;
H = 6;
T = 2;

avail = array3d(1..N, 1..H, 1..T, [6, 3, 7, 10, 0, 0, 2, 7, 6, 2, 1, 4, 10, 4, 5, 0, 1, 6, 9, 4, 3, 10, 4, 5, 3, 6, 9, 7, 5, 1, 9, 9, 5, 10, 5, 0, 6, 5, 9, 4, 2, 2, 4, 9, 4, 5, 7, 3, 0, 1, 4, 7, 1, 6, 4, 5, 7, 10, 9, 0, 1, 6, 4, 5, 9, 6, 3, 1, 5, 0, 6, 2, 8, 2, 4, 0, 6, 4, 7, 3, 3, 6, 0, 3, 9, 9, 2, 6, 5, 1, 0, 5, 4, 8, 9, 2, 2, 4, 4, 1, 10, 4, 5, 5, 8, 10, 10, 10, 3, 4, 7, 9, 2, 1, 4, 4, 10, 9, 8, 1]);

r = array2d(1..H, 1..T, [1, 1, 1, 1, 1, 1, 1, 1, 1, 1, 1, 1]);
